%%% static parameters %%%
timespan = 1;
Clients_N = [1000];
Demand_W = [15];
Lt0 = [4];
Lt1 = [4];
SS_ = [0.85];
DS_D = [20];
K = [200];
MA = [500];
HC = [0.05];
%%% dynamic parameters %%%
lost_ratio_sales_ret_th = 0.009371368601291952;
lost_ratio_sales_ret_w = 71;
lost_ratio_sales_dis_th = 0.005811701572038121;
lost_ratio_sales_dis_w = 35;
lost_ratio_sales_fac_th = 0.002758961966810514;
lost_ratio_sales_fac_w = 88;
stock_customer_MA_mean_relative_th = 0.5671572974506666;
stock_customer_MA_mean_relative_w = 30;
stock_distributor_MA_mean_relative_th = 0.030102722617135647;
stock_distributor_MA_mean_relative_w = 71;
stock_retailer_MA_mean_relative_th = 0.7584565479958366;
stock_retailer_MA_mean_relative_w = 33;
stock_factory_MA_mean_relative_th = 0.9359776195894023;
stock_factory_MA_mean_relative_w = 75;
